NAME : P-n76-k4.522942.tour
COMMENT : Length = 522942
COMMENT : Found by LKH [Keld Helsgaun] Sun Dec 17 22:40:04 2017
TYPE : TOUR
DIMENSION : 79
TOUR_SECTION
1
68
35
47
9
8
36
20
55
14
58
16
6
38
21
71
61
72
70
37
48
22
62
77
76
5
53
28
46
30
49
31
75
29
23
65
43
44
42
57
24
50
25
78
18
52
7
69
3
63
74
2
34
64
17
4
45
33
51
19
56
26
32
79
27
13
41
10
40
73
59
11
39
66
67
12
54
15
60
-1
EOF
